NAME : ClusterId_1023 
COMMENT : (Gillet and Johnson) 
TYPE : CVRP 
DIMENSION : 22 
EDGE_WEIGHT_TYPE : EUC_2D 
CAPACITY : 500 
NODE_COORD_SECTION 
1023 7173 6537 
660 6738 6569 
222 6499 6522 
297 7030 6568 
663 7077 6372 
818 7087 6159 
656 7062 6632 
911 6265 6299 
657 6197 6302 
247 7154 6059 
491 7156 6512 
812 7391 5799 
500 7489 5649 
365 7603 5843 
606 7330 5669 
62 7224 5660 
92 7908 5707 
557 7366 5273 
805 7203 5301 
645 6956 5399 
643 7143 5302 
397 7075 5117 
DEMAND_SECTION 
1023 879
660 51
222 39
297 38
663 50
818 28
656 37
911 52
657 42
247 44
491 28
812 27
500 30
365 48
606 53
62 44
92 46
557 35
805 34
645 55
643 34
397 33
DEPOT_SECTION 
1023
 -1
EOF